
Log started (V12.6.3.0) Mon Jun 19 13:07:02 2017

New value for default parallel thread count: 1

Problem '/tmp/tmpAHZAQr.pyomo.lp' read.
Read time = 0.01 sec. (0.57 ticks)

Problem name         : /tmp/tmpAHZAQr.pyomo.lp
Objective sense      : Minimize
Variables            :    6092  [Nneg: 6049,  Binary: 42,  General Integer: 1]
Objective nonzeros   :       1
Linear constraints   :    2972  [Less: 42,  Equal: 2930]
  Nonzeros           :   20998
  RHS nonzeros       :      68

Variables            : Min LB: 0.000000         Max UB: 1.000000       
Objective nonzeros   : Min   : 1.000000         Max   : 1.000000       
Linear constraints   :
  Nonzeros           : Min   : 1.000000         Max   : 1380.000       
  RHS nonzeros       : Min   : 1.000000         Max   : 1260.000       
Tried aggregator 2 times.
MIP Presolve eliminated 2868 rows and 5513 columns.
Aggregator did 7 substitutions.
Reduced MIP has 97 rows, 572 columns, and 1650 nonzeros.
Reduced MIP has 34 binaries, 0 generals, 0 SOSs, and 0 indicators.
Presolve time = 0.00 sec. (5.25 ticks)
Found incumbent of value 38.000000 after 0.01 sec. (8.01 ticks)
Probing time = 0.00 sec. (0.07 ticks)
Tried aggregator 1 time.
Reduced MIP has 97 rows, 572 columns, and 1650 nonzeros.
Reduced MIP has 34 binaries, 0 generals, 0 SOSs, and 0 indicators.
Presolve time = 0.00 sec. (0.56 ticks)
Probing time = 0.00 sec. (0.07 ticks)
Clique table members: 4.
MIP emphasis: balance optimality and feasibility.
MIP search method: dynamic search.
Parallel mode: none, using 1 thread.
Root relaxation solution time = 0.00 sec. (3.08 ticks)

        Nodes                                         Cuts/
   Node  Left     Objective  IInf  Best Integer    Best Bound    ItCnt     Gap

*     0+    0                           38.0000        4.0000            89.47%
      0     0       11.8291    13       38.0000       11.8291      404   68.87%
*     0+    0                           18.0000       11.8291            34.28%
      0     0       12.5921    22       18.0000     Cuts: 124      578   30.04%
      0     0       13.3385    19       18.0000     Cuts: 124      730   25.90%
      0     0       13.6067    22       18.0000     Cuts: 124      835   24.41%
      0     0       13.9485    23       18.0000     Cuts: 124     1036   22.51%
      0     0       14.3625    20       18.0000     Cuts: 124     1158   20.21%
      0     0       14.6691    19       18.0000     Cuts: 124     1255   18.51%
      0     0       15.3767    22       18.0000     Cuts: 124     1368   14.57%
*     0+    0                           16.0000       15.3767             3.90%
      0     0        cutoff             16.0000       15.3767     1368    3.90%
Elapsed time = 0.06 sec. (68.46 ticks, tree = 0.01 MB, solutions = 3)

Cover cuts applied:  5
Implied bound cuts applied:  25
Flow cuts applied:  9
Mixed integer rounding cuts applied:  27

Root node processing (before b&c):
  Real time             =    0.06 sec. (68.71 ticks)
Sequential b&c:
  Real time             =    0.00 sec. (0.00 ticks)
                          ------------
Total (root+branch&cut) =    0.06 sec. (68.71 ticks)

Solution pool: 3 solutions saved.

MIP - Integer optimal solution:  Objective =  1.6000000000e+01
Solution time =    0.06 sec.  Iterations = 1368  Nodes = 0
Deterministic time = 68.73 ticks  (1168.10 ticks/sec)


Incumbent solution written to file '/tmp/tmpHbVRUj.cplex.sol'.

Log started (V12.6.3.0) Mon Jul 24 16:47:22 2017

New value for default parallel thread count: 1

Problem '/tmp/tmpTBlgpV.pyomo.lp' read.
Read time = 0.01 sec. (0.57 ticks)

Problem name         : /tmp/tmpTBlgpV.pyomo.lp
Objective sense      : Minimize
Variables            :    6092  [Nneg: 6049,  Binary: 42,  General Integer: 1]
Objective nonzeros   :       1
Linear constraints   :    2972  [Less: 42,  Equal: 2930]
  Nonzeros           :   20998
  RHS nonzeros       :      68

Variables            : Min LB: 0.000000         Max UB: 1.000000       
Objective nonzeros   : Min   : 1.000000         Max   : 1.000000       
Linear constraints   :
  Nonzeros           : Min   : 1.000000         Max   : 1380.000       
  RHS nonzeros       : Min   : 1.000000         Max   : 1260.000       
Tried aggregator 2 times.
MIP Presolve eliminated 2868 rows and 5513 columns.
Aggregator did 7 substitutions.
Reduced MIP has 97 rows, 572 columns, and 1650 nonzeros.
Reduced MIP has 34 binaries, 0 generals, 0 SOSs, and 0 indicators.
Presolve time = 0.01 sec. (5.25 ticks)
Found incumbent of value 38.000000 after 0.01 sec. (8.01 ticks)
Probing time = 0.00 sec. (0.07 ticks)
Tried aggregator 1 time.
Reduced MIP has 97 rows, 572 columns, and 1650 nonzeros.
Reduced MIP has 34 binaries, 0 generals, 0 SOSs, and 0 indicators.
Presolve time = 0.00 sec. (0.56 ticks)
Probing time = 0.00 sec. (0.07 ticks)
Clique table members: 4.
MIP emphasis: balance optimality and feasibility.
MIP search method: dynamic search.
Parallel mode: none, using 1 thread.
Root relaxation solution time = 0.00 sec. (3.08 ticks)

        Nodes                                         Cuts/
   Node  Left     Objective  IInf  Best Integer    Best Bound    ItCnt     Gap

*     0+    0                           38.0000        4.0000            89.47%
      0     0       11.8291    13       38.0000       11.8291      404   68.87%
*     0+    0                           18.0000       11.8291            34.28%
      0     0       12.5921    22       18.0000     Cuts: 124      578   30.04%
      0     0       13.3385    19       18.0000     Cuts: 124      730   25.90%
      0     0       13.6067    22       18.0000     Cuts: 124      835   24.41%
      0     0       13.9485    23       18.0000     Cuts: 124     1036   22.51%
      0     0       14.3625    20       18.0000     Cuts: 124     1158   20.21%
      0     0       14.6691    19       18.0000     Cuts: 124     1255   18.51%
      0     0       15.3767    22       18.0000     Cuts: 124     1368   14.57%
*     0+    0                           16.0000       15.3767             3.90%
      0     0        cutoff             16.0000       15.3767     1368    3.90%
Elapsed time = 0.09 sec. (68.46 ticks, tree = 0.01 MB, solutions = 3)

Cover cuts applied:  5
Implied bound cuts applied:  25
Flow cuts applied:  9
Mixed integer rounding cuts applied:  27

Root node processing (before b&c):
  Real time             =    0.09 sec. (68.71 ticks)
Sequential b&c:
  Real time             =    0.00 sec. (0.00 ticks)
                          ------------
Total (root+branch&cut) =    0.09 sec. (68.71 ticks)

Solution pool: 3 solutions saved.

MIP - Integer optimal solution:  Objective =  1.6000000000e+01
Solution time =    0.09 sec.  Iterations = 1368  Nodes = 0
Deterministic time = 68.73 ticks  (786.77 ticks/sec)


Incumbent solution written to file '/tmp/tmpJaFNXe.cplex.sol'.

Log started (V12.6.3.0) Mon Jul 24 17:00:33 2017

New value for default parallel thread count: 1

Problem '/tmp/tmpC2WXcC.pyomo.lp' read.
Read time = 0.01 sec. (0.57 ticks)

Problem name         : /tmp/tmpC2WXcC.pyomo.lp
Objective sense      : Minimize
Variables            :    6092  [Nneg: 6049,  Binary: 42,  General Integer: 1]
Objective nonzeros   :       1
Linear constraints   :    2972  [Less: 42,  Equal: 2930]
  Nonzeros           :   20998
  RHS nonzeros       :      68

Variables            : Min LB: 0.000000         Max UB: 1.000000       
Objective nonzeros   : Min   : 1.000000         Max   : 1.000000       
Linear constraints   :
  Nonzeros           : Min   : 1.000000         Max   : 1380.000       
  RHS nonzeros       : Min   : 1.000000         Max   : 1260.000       
Tried aggregator 2 times.
MIP Presolve eliminated 2868 rows and 5513 columns.
Aggregator did 7 substitutions.
Reduced MIP has 97 rows, 572 columns, and 1650 nonzeros.
Reduced MIP has 34 binaries, 0 generals, 0 SOSs, and 0 indicators.
Presolve time = 0.00 sec. (5.25 ticks)
Found incumbent of value 38.000000 after 0.01 sec. (8.01 ticks)
Probing time = 0.00 sec. (0.07 ticks)
Tried aggregator 1 time.
Reduced MIP has 97 rows, 572 columns, and 1650 nonzeros.
Reduced MIP has 34 binaries, 0 generals, 0 SOSs, and 0 indicators.
Presolve time = 0.00 sec. (0.56 ticks)
Probing time = 0.00 sec. (0.07 ticks)
Clique table members: 4.
MIP emphasis: balance optimality and feasibility.
MIP search method: dynamic search.
Parallel mode: none, using 1 thread.
Root relaxation solution time = 0.00 sec. (3.08 ticks)

        Nodes                                         Cuts/
   Node  Left     Objective  IInf  Best Integer    Best Bound    ItCnt     Gap

*     0+    0                           38.0000        4.0000            89.47%
      0     0       11.8291    13       38.0000       11.8291      404   68.87%
*     0+    0                           18.0000       11.8291            34.28%
      0     0       12.5921    22       18.0000     Cuts: 124      578   30.04%
      0     0       13.3385    19       18.0000     Cuts: 124      730   25.90%
      0     0       13.6067    22       18.0000     Cuts: 124      835   24.41%
      0     0       13.9485    23       18.0000     Cuts: 124     1036   22.51%
      0     0       14.3625    20       18.0000     Cuts: 124     1158   20.21%
      0     0       14.6691    19       18.0000     Cuts: 124     1255   18.51%
      0     0       15.3767    22       18.0000     Cuts: 124     1368   14.57%
*     0+    0                           16.0000       15.3767             3.90%
      0     0        cutoff             16.0000       15.3767     1368    3.90%
Elapsed time = 0.06 sec. (68.46 ticks, tree = 0.01 MB, solutions = 3)

Cover cuts applied:  5
Implied bound cuts applied:  25
Flow cuts applied:  9
Mixed integer rounding cuts applied:  27

Root node processing (before b&c):
  Real time             =    0.06 sec. (68.71 ticks)
Sequential b&c:
  Real time             =    0.00 sec. (0.00 ticks)
                          ------------
Total (root+branch&cut) =    0.06 sec. (68.71 ticks)

Solution pool: 3 solutions saved.

MIP - Integer optimal solution:  Objective =  1.6000000000e+01
Solution time =    0.06 sec.  Iterations = 1368  Nodes = 0
Deterministic time = 68.73 ticks  (1229.05 ticks/sec)


Incumbent solution written to file '/tmp/tmpCjOnBQ.cplex.sol'.

Log started (V12.6.3.0) Thu Jul 27 14:25:19 2017

New value for default parallel thread count: 1

Problem '/tmp/tmpL4r1Ow.pyomo.lp' read.
Read time = 0.01 sec. (0.57 ticks)

Problem name         : /tmp/tmpL4r1Ow.pyomo.lp
Objective sense      : Minimize
Variables            :    6092  [Nneg: 6049,  Binary: 42,  General Integer: 1]
Objective nonzeros   :       1
Linear constraints   :    2972  [Less: 42,  Equal: 2930]
  Nonzeros           :   20998
  RHS nonzeros       :      68

Variables            : Min LB: 0.000000         Max UB: 1.000000       
Objective nonzeros   : Min   : 1.000000         Max   : 1.000000       
Linear constraints   :
  Nonzeros           : Min   : 1.000000         Max   : 1380.000       
  RHS nonzeros       : Min   : 1.000000         Max   : 1260.000       
Tried aggregator 2 times.
MIP Presolve eliminated 2868 rows and 5513 columns.
Aggregator did 7 substitutions.
Reduced MIP has 97 rows, 572 columns, and 1650 nonzeros.
Reduced MIP has 34 binaries, 0 generals, 0 SOSs, and 0 indicators.
Presolve time = 0.00 sec. (5.25 ticks)
Found incumbent of value 38.000000 after 0.01 sec. (8.01 ticks)
Probing time = 0.00 sec. (0.07 ticks)
Tried aggregator 1 time.
Reduced MIP has 97 rows, 572 columns, and 1650 nonzeros.
Reduced MIP has 34 binaries, 0 generals, 0 SOSs, and 0 indicators.
Presolve time = 0.00 sec. (0.56 ticks)
Probing time = 0.00 sec. (0.07 ticks)
Clique table members: 4.
MIP emphasis: balance optimality and feasibility.
MIP search method: dynamic search.
Parallel mode: none, using 1 thread.
Root relaxation solution time = 0.00 sec. (3.08 ticks)

        Nodes                                         Cuts/
   Node  Left     Objective  IInf  Best Integer    Best Bound    ItCnt     Gap

*     0+    0                           38.0000        4.0000            89.47%
      0     0       11.8291    13       38.0000       11.8291      404   68.87%
*     0+    0                           18.0000       11.8291            34.28%
      0     0       12.5921    22       18.0000     Cuts: 124      578   30.04%
      0     0       13.3385    19       18.0000     Cuts: 124      730   25.90%
      0     0       13.6067    22       18.0000     Cuts: 124      835   24.41%
      0     0       13.9485    23       18.0000     Cuts: 124     1036   22.51%
      0     0       14.3625    20       18.0000     Cuts: 124     1158   20.21%
      0     0       14.6691    19       18.0000     Cuts: 124     1255   18.51%
      0     0       15.3767    22       18.0000     Cuts: 124     1368   14.57%
*     0+    0                           16.0000       15.3767             3.90%
      0     0        cutoff             16.0000       15.3767     1368    3.90%
Elapsed time = 0.06 sec. (68.46 ticks, tree = 0.01 MB, solutions = 3)

Cover cuts applied:  5
Implied bound cuts applied:  25
Flow cuts applied:  9
Mixed integer rounding cuts applied:  27

Root node processing (before b&c):
  Real time             =    0.06 sec. (68.71 ticks)
Sequential b&c:
  Real time             =    0.00 sec. (0.00 ticks)
                          ------------
Total (root+branch&cut) =    0.06 sec. (68.71 ticks)

Solution pool: 3 solutions saved.

MIP - Integer optimal solution:  Objective =  1.6000000000e+01
Solution time =    0.06 sec.  Iterations = 1368  Nodes = 0
Deterministic time = 68.73 ticks  (1200.04 ticks/sec)


Incumbent solution written to file '/tmp/tmp9MQgTE.cplex.sol'.
